
Gurobi 7.0.0 (win32, Python) logging started 11/15/16 15:29:37


Gurobi 7.0.0 (win32, Python) logging started 11/15/16 15:35:20


Gurobi 7.0.0 (win32, Python) logging started 11/15/16 15:37:22


Gurobi 7.0.0 (win32, Python) logging started 11/15/16 15:37:51


Gurobi 7.0.0 (win32, Python) logging started 11/15/16 15:38:23


Gurobi 7.0.0 (win32, Python) logging started 11/15/16 15:41:16


Gurobi 7.0.0 (win32, Python) logging started 11/15/16 15:41:28


Gurobi 7.0.0 (win32, Python) logging started 11/15/16 15:41:57


Gurobi 7.0.0 (win32, Python) logging started 11/15/16 15:42:41


Gurobi 7.0.0 (win32, Python) logging started 11/15/16 15:42:50


Gurobi 7.0.0 (win32, Python) logging started 11/15/16 15:58:04


Gurobi 7.0.0 (win32, Python) logging started 11/15/16 15:58:16


Gurobi 7.0.0 (win32, Python) logging started 11/15/16 16:00:54


Gurobi 7.0.0 (win32, Python) logging started 11/15/16 16:01:05


Gurobi 7.0.0 (win32, Python) logging started 11/15/16 16:01:16


Gurobi 7.0.0 (win32, Python) logging started 11/15/16 16:01:37


Gurobi 7.0.0 (win32, Python) logging started 11/15/16 16:07:28


Gurobi 7.0.0 (win32, Python) logging started 11/15/16 16:07:38


Gurobi 7.0.0 (win32, Python) logging started 11/15/16 16:08:54


Gurobi 7.0.0 (win32, Python) logging started 11/15/16 16:11:41


Gurobi 7.0.0 (win32, Python) logging started 11/15/16 16:12:30


Gurobi 7.0.0 (win32, Python) logging started 11/15/16 16:12:37


Gurobi 7.0.0 (win32, Python) logging started 11/15/16 16:18:19


Gurobi 7.0.0 (win32, Python) logging started 11/15/16 16:21:54


Gurobi 7.0.0 (win32, Python) logging started 11/15/16 16:21:59


Gurobi 7.0.0 (win32, Python) logging started 11/15/16 16:25:40


Gurobi 7.0.0 (win32, Python) logging started 11/15/16 16:26:02


Gurobi 7.0.0 (win32, Python) logging started 11/15/16 16:30:32


Gurobi 7.0.0 (win32, Python) logging started 11/15/16 16:33:59


Gurobi 7.0.0 (win32, Python) logging started 11/15/16 16:34:15


Gurobi 7.0.0 (win32, Python) logging started 11/15/16 16:34:47


Gurobi 7.0.0 (win32, Python) logging started 11/15/16 16:34:57


Gurobi 7.0.0 (win32, Python) logging started 11/15/16 16:35:15


Gurobi 7.0.0 (win32, Python) logging started 11/15/16 16:35:33


Gurobi 7.0.0 (win32, Python) logging started 11/15/16 16:35:46


Gurobi 7.0.0 (win32, Python) logging started 11/15/16 16:36:00


Gurobi 7.0.0 (win32, Python) logging started 11/15/16 16:37:59


Gurobi 7.0.0 (win32, Python) logging started 11/15/16 16:38:07


Gurobi 7.0.0 (win32, Python) logging started 11/15/16 16:39:22


Gurobi 7.0.0 (win32, Python) logging started 11/15/16 16:47:57


Gurobi 7.0.0 (win32, Python) logging started 11/15/16 16:48:10


Gurobi 7.0.0 (win32, Python) logging started 11/15/16 16:48:24


Gurobi 7.0.0 (win32, Python) logging started 11/15/16 16:50:13


Gurobi 7.0.0 (win32, Python) logging started 11/15/16 16:50:26


Gurobi 7.0.0 (win32, Python) logging started 11/15/16 16:50:38


Gurobi 7.0.0 (win32, Python) logging started 11/15/16 16:52:40


Gurobi 7.0.0 (win32, Python) logging started 11/15/16 16:53:20


Gurobi 7.0.0 (win32, Python) logging started 11/15/16 16:54:34


Gurobi 7.0.0 (win32, Python) logging started 11/15/16 16:55:24


Gurobi 7.0.0 (win32, Python) logging started 11/15/16 16:55:39


Gurobi 7.0.0 (win32, Python) logging started 11/15/16 16:55:46


Gurobi 7.0.0 (win32, Python) logging started 11/15/16 16:58:56


Gurobi 7.0.0 (win32, Python) logging started 11/15/16 17:00:01


Gurobi 7.0.0 (win32, Python) logging started 11/15/16 17:00:24


Gurobi 7.0.0 (win32, Python) logging started 11/15/16 17:00:37


Gurobi 7.0.0 (win32, Python) logging started 11/15/16 17:00:55


Gurobi 7.0.0 (win32, Python) logging started 11/15/16 17:01:18


Gurobi 7.0.0 (win32, Python) logging started 11/15/16 17:01:44


Gurobi 7.0.0 (win32, Python) logging started 11/15/16 17:02:01


Gurobi 7.0.0 (win32, Python) logging started 11/15/16 17:02:10


Gurobi 7.0.0 (win32, Python) logging started 11/15/16 17:02:53


Gurobi 7.0.0 (win32, Python) logging started 11/15/16 17:03:00


Gurobi 7.0.0 (win32, Python) logging started 11/15/16 17:03:17


Gurobi 7.0.0 (win32, Python) logging started 11/15/16 17:03:27


Gurobi 7.0.0 (win32, Python) logging started 11/15/16 17:03:56


Gurobi 7.0.0 (win32, Python) logging started 11/15/16 17:04:46


Gurobi 7.0.0 (win32, Python) logging started 11/15/16 17:05:01


Gurobi 7.0.0 (win32, Python) logging started 11/15/16 17:05:11


Gurobi 7.0.0 (win32, Python) logging started 11/15/16 17:06:06


Gurobi 7.0.0 (win32, Python) logging started 11/15/16 17:07:56


Gurobi 7.0.0 (win32, Python) logging started 11/15/16 17:08:16


Gurobi 7.0.0 (win32, Python) logging started 11/15/16 17:08:34


Gurobi 7.0.0 (win32, Python) logging started 11/15/16 17:09:19


Gurobi 7.0.0 (win32, Python) logging started 11/15/16 17:09:28


Gurobi 7.0.0 (win32, Python) logging started 11/15/16 17:11:20


Gurobi 7.0.0 (win32, Python) logging started 11/15/16 17:11:28


Gurobi 7.0.0 (win32, Python) logging started 11/15/16 17:11:42


Gurobi 7.0.0 (win32, Python) logging started 11/15/16 17:12:56


Gurobi 7.0.0 (win32, Python) logging started 11/15/16 17:13:06


Gurobi 7.0.0 (win32, Python) logging started 11/15/16 17:13:12


Gurobi 7.0.0 (win32, Python) logging started 11/15/16 17:13:16


Gurobi 7.0.0 (win32, Python) logging started 11/15/16 17:13:21


Gurobi 7.0.0 (win32, Python) logging started 11/15/16 17:14:13


Gurobi 7.0.0 (win32, Python) logging started 11/15/16 17:16:23


Gurobi 7.0.0 (win32, Python) logging started 11/15/16 17:16:51


Gurobi 7.0.0 (win32, Python) logging started 11/15/16 17:17:02


Gurobi 7.0.0 (win32, Python) logging started 11/15/16 17:17:51


Gurobi 7.0.0 (win32, Python) logging started 11/15/16 17:18:17


Gurobi 7.0.0 (win32, Python) logging started 11/15/16 17:18:41


Gurobi 7.0.0 (win32, Python) logging started 11/15/16 19:04:28


Gurobi 7.0.0 (win32, Python) logging started 11/15/16 19:04:47


Gurobi 7.0.0 (win32, Python) logging started 11/15/16 19:05:48


Gurobi 7.0.0 (win32, Python) logging started 11/15/16 19:06:30


Gurobi 7.0.0 (win32, Python) logging started 11/15/16 19:09:56


Gurobi 7.0.0 (win32, Python) logging started 11/15/16 19:10:40


Gurobi 7.0.0 (win32, Python) logging started 11/15/16 19:10:48


Gurobi 7.0.0 (win32, Python) logging started 11/16/16 11:58:06


Gurobi 7.0.0 (win32, Python) logging started 11/16/16 11:58:30


Gurobi 7.0.0 (win32, Python) logging started 11/16/16 11:59:06

